DIMENSION :18
NODE_COORD_SECTION
1 -78.09909612021788 37.07292461139943
2 -61.28400376096994 -66.32123099452295
3 31.926357849911682 -40.476891987192644
4 -29.151965454309362 -25.626677573936703
5 96.04254238762962 -34.61827052111528
6 -24.81191216760091 -19.045119918928833
7 61.23712447325988 51.50548259740461
8 36.53283018539773 -15.510843807700141
9 69.74937335908456 -71.41557545234676
10 83.31324030770938 63.590830769285844
11 3.331857925153713 -33.86422321618376
12 83.60318390125539 -5.240046554529016
13 17.231769126636394 -59.81728569397513
14 -3.41453066896473 -3.053098941097616
15 -6.731992619605151 -28.753688637924427
16 -91.44133881291559 77.21229555705636
17 -88.89310033596911 61.56785336680065
18 -82.08052716762782 -3.7374684109423413
EOF
